19,9	0,0	13,1	10,6	0,0	0,0	0,0	0,0	0,0	14,0
18,7	11,4	0,0	8,1	15,9	0,0	0,0	11,9	0,0	0,0
0,0	0,0	9,4	0,0	18,1	19,9	0,0	0,0	10,3	0,0
15,1	0,0	7,0	0,0	0,0	0,0	5,3	0,0	0,0	0,0
0,0	12,3	0,0	17,0	12,0	0,0	0,0	8,2	0,0	0,0
0,0	6,2	11,5	0,0	7,9	11,9	0,0	0,0	7,9	0,0
0,0	6,8	0,0	18,9	0,0	0,0	11,6	0,0	0,0	5,6
11,3	0,0	10,9	0,0	0,0	0,0	0,0	0,0	0,0	14,7
0,0	11,4	0,0	16,4	18,1	0,0	0,0	17,1	0,0	0,0
0,0	0,0	17,5	0,0	0,0	15,0	6,6	0,0	0,0	16,7
									
4,5	3,4	4,2	4,5	3,4	2,6	3,3	4,7	2,7	3,6
